100
32
2
25
9
10
20
5
20
20
15
23
2
19
9
13
17
2
2
23
7
1
17
4
19
27
20
30
2
16
17
21
29
3
17
20
3
3
21
18
27
3
1
22
10
10
29
3
6
2
3
25
22
22
10
26
28
11
2
2
2
25
28
12
6
10
7
25
1
23
16
24
1
9
1
8
14
1
3
2
18
2
2
23
5
13
4
6
9
13
2
2
12
15
1
4
11
13
12
1
13
3